scip/repair/build/lseu0.lp
\ SCIP STATISTICS
\   Problem name     : LSEU
\   Variables        : 89 (89 binary, 0 integer, 0 implicit integer, 0 continuous)
\   Constraints      : 28
\   Obj. scale       : 1
\   Obj. offset      : 0
Minimize
 Obj: +159 C188 +7 C101 +10 C102 +179 C103 +186 C104 +179 C105 +6 C108 +164 C111 +164 C112 +170 C113 +164 C114
      +346 C115 +346 C116 +248 C117 +253 C118 +248 C119 +346 C120 +346 C121 +346 C122 +346 C123 +160 C124
      +161 C125 +160 C126 +160 C127 +161 C128 +160 C129 +160 C130 +278 C131 +278 C132 +278 C133 +86 C134
      +86 C135 +86 C136 +86 C137 +86 C138 +86 C139 +188 C140 +188 C141 +188 C142 +85 C143 +85 C144 +85 C145
      +85 C146 +85 C147 +78 C148 +78 C149 +78 C150 +78 C151 +78 C152 +78 C153 +78 C154 +78 C155 +78 C156
      +171 C157 +171 C158 +171 C159 +171 C160 +163 C161 +163 C162 +163 C163 +69 C164 +69 C165 +183 C166
      +183 C167 +183 C168 +183 C169 +49 C170 +183 C171 +258 C172 +517 C173 +250 C174 +500 C175 +250 C176
      +500 C177 +159 C178 +318 C179 +159 C180 +318 C181 +159 C182 +318 C183 +159 C184 +318 C185 +114 C186
      +228 C187 +318 C189
Subject to
 R101: +1 C103 +1 C104 +1 C105 <= +1
 R102: +1 C106 +1 C107 +1 C108 +1 C109 +1 C110 <= +1
 R103: +1 C111 +1 C112 +1 C113 +1 C114 <= +1
 R104: +1 C115 +1 C116 <= +1
 R107: +1 C124 +1 C125 +1 C126 +1 C127 +1 C128 +1 C129 +1 C130 <= +1
 R108: +1 C131 +1 C132 +1 C133 <= +1
 R109: +1 C134 +1 C135 +1 C136 +1 C137 +1 C138 <= +1
 R110: +1 C140 +1 C141 +1 C142 <= +1
 R112: +1 C148 +1 C149 +1 C150 +1 C151 <= +1
 R114: +1 C157 +1 C158 +1 C159 +1 C160 <= +1
 R117: +1 C166 +1 C167 +1 C168 +1 C169 +1 C171 <= +1
 R119: +525 C101 +500 C102 +475 C103 +475 C104 +475 C105 +435 C113 +435 C114 +435 C116 +435 C117 +435 C118
  +435 C119 +425 C127 +425 C128 +425 C129 +330 C136 +330 C137 +330 C138 +330 C139 +330 C141 +330 C142
  +325 C145 +325 C146 +325 C147 +300 C149 +300 C150 +300 C154 +300 C155 +300 C156 +300 C159 +300 C160
  +285 C161 +285 C162 +265 C164 +265 C165 +230 C168 +230 C169 +190 C170 +200 C178 +400 C179 +200 C180
  +400 C181 +200 C182 +400 C183 +200 C184 +400 C185 +200 C186 +400 C187 <= +2700
 R120: -525 C101 -500 C102 -475 C103 -475 C104 -475 C105 -435 C113 -435 C114 -435 C116 -435 C117 -435 C118
  -435 C119 -425 C127 -425 C128 -425 C129 -330 C136 -330 C137 -330 C138 -330 C139 -330 C141 -330 C142
  -325 C145 -325 C146 -325 C147 -300 C149 -300 C150 -300 C154 -300 C155 -300 C156 -300 C159 -300 C160
  -285 C161 -285 C162 -265 C164 -265 C165 -230 C168 -230 C169 -190 C170 -200 C178 -400 C179 -200 C180
  -400 C181 -200 C182 -400 C183 -200 C184 -400 C185 -200 C186 -400 C187 <= -2600
 R121: -435 C114 -400 C122 -350 C133 -330 C138 -330 C142 -325 C147 -300 C150 -300 C156 -300 C160 -200 C186
  -400 C187 <= -630
 R122: -525 C101 -500 C102 -475 C104 -190 C105 -450 C108 -165 C109 -435 C118 -300 C119 -400 C125 -115 C126
  -330 C134 -330 C139 -330 C140 -325 C143 -300 C148 -300 C152 -300 C157 -285 C162 -265 C165 -190 C170
  -200 C182 -400 C183 <= -900
 R123: -525 C101 -500 C102 -475 C104 -190 C105 -450 C108 -165 C109 -435 C113 -435 C118 -300 C119 -400 C121
  -400 C125 -115 C126 -425 C128 -140 C129 -330 C134 -330 C137 -330 C139 -330 C140 -325 C143 -325 C146
  -300 C148 -300 C152 -300 C155 -300 C157 -300 C159 -285 C162 -265 C165 -230 C169 -190 C170 -200 C182
  -400 C183 -200 C184 -400 C185 <= -1656
 R125: -475 C103 -285 C105 -450 C107 -285 C109 -150 C110 -435 C112 -435 C115 -435 C116 -435 C117 -135 C119
  -100 C123 -400 C124 -285 C126 -425 C127 -285 C129 -100 C130 -350 C132 -330 C136 -330 C141 -325 C145
  -300 C149 -300 C154 -285 C161 -265 C164 -230 C167 -230 C168 -200 C178 -400 C179 -200 C180 -400 C181
  <= -1026
 R126: -300 C130 -330 C135 -325 C144 -300 C153 -300 C158 -200 C174 -400 C175 <= -150
 R127: -300 C123 -300 C130 -330 C135 -325 C144 -300 C153 -300 C158 -200 C174 -400 C175 -200 C176 -400 C177
  <= -500
 R128: -300 C151 -285 C163 -200 C188 -400 C189 <= -270
Bounds
 0 <= C188 <= 1
 0 <= C101 <= 1
 0 <= C102 <= 1
 0 <= C103 <= 1
 0 <= C104 <= 1
 0 <= C105 <= 1
 0 <= C106 <= 1
 0 <= C107 <= 1
 0 <= C108 <= 1
 0 <= C109 <= 1
 0 <= C110 <= 1
 0 <= C111 <= 1
 0 <= C112 <= 1
 0 <= C113 <= 1
 0 <= C114 <= 1
 0 <= C115 <= 1
 0 <= C116 <= 1
 0 <= C117 <= 1
 0 <= C118 <= 1
 0 <= C119 <= 1
 0 <= C120 <= 1
 0 <= C121 <= 1
 0 <= C122 <= 1
 0 <= C123 <= 1
 0 <= C124 <= 1
 0 <= C125 <= 1
 0 <= C126 <= 1
 0 <= C127 <= 1
 0 <= C128 <= 1
 0 <= C129 <= 1
 0 <= C130 <= 1
 0 <= C131 <= 1
 0 <= C132 <= 1
 0 <= C133 <= 1
 0 <= C134 <= 1
 0 <= C135 <= 1
 0 <= C136 <= 1
 0 <= C137 <= 1
 0 <= C138 <= 1
 0 <= C139 <= 1
 0 <= C140 <= 1
 0 <= C141 <= 1
 0 <= C142 <= 1
 0 <= C143 <= 1
 0 <= C144 <= 1
 0 <= C145 <= 1
 0 <= C146 <= 1
 0 <= C147 <= 1
 0 <= C148 <= 1
 0 <= C149 <= 1
 0 <= C150 <= 1
 0 <= C151 <= 1
 0 <= C152 <= 1
 0 <= C153 <= 1
 0 <= C154 <= 1
 0 <= C155 <= 1
 0 <= C156 <= 1
 0 <= C157 <= 1
 0 <= C158 <= 1
 0 <= C159 <= 1
 0 <= C160 <= 1
 0 <= C161 <= 1
 0 <= C162 <= 1
 0 <= C163 <= 1
 0 <= C164 <= 1
 0 <= C165 <= 1
 0 <= C166 <= 1
 0 <= C167 <= 1
 0 <= C168 <= 1
 0 <= C169 <= 1
 0 <= C170 <= 1
 0 <= C171 <= 1
 0 <= C172 <= 1
 0 <= C173 <= 1
 0 <= C174 <= 1
 0 <= C175 <= 1
 0 <= C176 <= 1
 0 <= C177 <= 1
 0 <= C178 <= 1
 0 <= C179 <= 1
 0 <= C180 <= 1
 0 <= C181 <= 1
 0 <= C182 <= 1
 0 <= C183 <= 1
 0 <= C184 <= 1
 0 <= C185 <= 1
 0 <= C186 <= 1
 0 <= C187 <= 1
 0 <= C189 <= 1
Binaries
 C188 C101 C102 C103 C104 C105 C106 C107 C108 C109 C110 C111 C112 C113 C114 C115 C116 C117 C118 C119 C120
 C121 C122 C123 C124 C125 C126 C127 C128 C129 C130 C131 C132 C133 C134 C135 C136 C137 C138 C139 C140 C141
 C142 C143 C144 C145 C146 C147 C148 C149 C150 C151 C152 C153 C154 C155 C156 C157 C158 C159 C160 C161 C162
 C163 C164 C165 C166 C167 C168 C169 C170 C171 C172 C173 C174 C175 C176 C177 C178 C179 C180 C181 C182 C183
 C184 C185 C186 C187 C189
End
