scip/repair/build/lseu0.sol
solution status: optimal solution found
objective value:                                  754
C101                                                1 	(obj:7)
C102                                                1 	(obj:10)
C107                                                1 	(obj:0)
C138                                                1 	(obj:86)
C139                                                1 	(obj:86)
C143                                                1 	(obj:85)
C144                                                1 	(obj:85)
C145                                                1 	(obj:85)
C147                                                1 	(obj:85)
C151                                                1 	(obj:78)
C153                                                1 	(obj:78)
C164                                                1 	(obj:69)
